(set-logic HORN)
(declare-fun state (Int Int Int Bool Int (Array Int Int) Int (Array Int Int) Bool (Array Int Int) (Array Int Int) Int Int (Array Int Int) Bool Int Int (Array Int Int) (Array Int Int) Int Int (Array Int Int) (Array Int Int) Int Int Int) Bool)
(assert (forall ((|.x.14| Int) (|main@%.1.i_0_0| Int) (|main@%_4_0_0| Int) (|main@%assume.flag.0_0_0| Bool) (|main@%_7_0_0| Int) (|main@%shadow.mem1.1_0_0| (Array Int Int)) (|main@%_9_0_0| Int) (|main@%shadow.mem.1_0_0| (Array Int Int)) (|main@%_6_0_0| Bool) (|main@%_14_0_0| (Array Int Int)) (|main@%_28_0_0| (Array Int Int)) (|main@%.0.i2_0_0| Int) (|main@%_8_0_0| Int) (|main@%_18_0_0| (Array Int Int)) (|main@%_5_0_0| Bool) (|main@%.14.i3_0_0| Int) (|main@%.01.i4_0_0| Int) (|main@%shadow.mem.0_0_0| (Array Int Int)) (|main@%_0_0_0| (Array Int Int)) (|@nd_char_0_0| Int) (|main@%.03.i6_0_0| Int) (|main@%shadow.mem1.0_0_0| (Array Int Int)) (|main@%shadow.mem2.0_0_0| (Array Int Int)) (|@nd_0_0| Int) (|main@%_16_0| Int) (|main@%_12_0| Int) (|.x.27| Int) (|.x.28| Int) (|main@%.03.i6_2| Int) (|.x.15| Int) (|main@%_5_1| Bool) (|.x.16| Int) (|.x.17| Bool) (|.x.18| (Array Int Int)) (|.x.19| (Array Int Int)) (|main@%_6_1| Bool) (|main@%_0_1| (Array Int Int)) (|main@%shadow.mem1.0_2| (Array Int Int)) (|main@%shadow.mem2.0_2| (Array Int Int)) (|main@%_9_1| Int) (|main@%_8_1| Int) (|main@%_7_1| Int) (|main@%_4_1| Int) (|.x.20| (Array Int Int)) (|.x.23| (Array Int Int)) (|.x.25| Int) (|.x.24| Int) (|.x.26| (Array Int Int)) (|.x.21| (Array Int Int)) (|.x.22| Int) (|.xtv.1| Int) (|.xtv.2| Int)) (=> (= .x.14 0) (state |.x.14| |main@%.1.i_0_0| |main@%_4_0_0| |main@%assume.flag.0_0_0| |main@%_7_0_0| |main@%shadow.mem1.1_0_0| |main@%_9_0_0| |main@%shadow.mem.1_0_0| |main@%_6_0_0| |main@%_14_0_0| |main@%_28_0_0| |main@%.0.i2_0_0| |main@%_8_0_0| |main@%_18_0_0| |main@%_5_0_0| |main@%.14.i3_0_0| |main@%.01.i4_0_0| |main@%shadow.mem.0_0_0| |main@%_0_0_0| |@nd_char_0_0| |main@%.03.i6_0_0| |main@%shadow.mem1.0_0_0| |main@%shadow.mem2.0_0_0| |@nd_0_0| |main@%_16_0| |main@%_12_0|))))
(assert (forall ((|.x.14| Int) (|main@%.1.i_0_0| Int) (|main@%_4_0_0| Int) (|main@%assume.flag.0_0_0| Bool) (|main@%_7_0_0| Int) (|main@%shadow.mem1.1_0_0| (Array Int Int)) (|main@%_9_0_0| Int) (|main@%shadow.mem.1_0_0| (Array Int Int)) (|main@%_6_0_0| Bool) (|main@%_14_0_0| (Array Int Int)) (|main@%_28_0_0| (Array Int Int)) (|main@%.0.i2_0_0| Int) (|main@%_8_0_0| Int) (|main@%_18_0_0| (Array Int Int)) (|main@%_5_0_0| Bool) (|main@%.14.i3_0_0| Int) (|main@%.01.i4_0_0| Int) (|main@%shadow.mem.0_0_0| (Array Int Int)) (|main@%_0_0_0| (Array Int Int)) (|@nd_char_0_0| Int) (|main@%.03.i6_0_0| Int) (|main@%shadow.mem1.0_0_0| (Array Int Int)) (|main@%shadow.mem2.0_0_0| (Array Int Int)) (|@nd_0_0| Int) (|main@%_16_0| Int) (|main@%_12_0| Int) (|.x.27| Int) (|.x.28| Int) (|main@%.03.i6_2| Int) (|.x.15| Int) (|main@%_5_1| Bool) (|.x.16| Int) (|.x.17| Bool) (|.x.18| (Array Int Int)) (|.x.19| (Array Int Int)) (|main@%_6_1| Bool) (|main@%_0_1| (Array Int Int)) (|main@%shadow.mem1.0_2| (Array Int Int)) (|main@%shadow.mem2.0_2| (Array Int Int)) (|main@%_9_1| Int) (|main@%_8_1| Int) (|main@%_7_1| Int) (|main@%_4_1| Int) (|.x.20| (Array Int Int)) (|.x.23| (Array Int Int)) (|.x.25| Int) (|.x.24| Int) (|.x.26| (Array Int Int)) (|.x.21| (Array Int Int)) (|.x.22| Int) (|.xtv.1| Int) (|.xtv.2| Int)) (=> (and (state |.x.14| |main@%.1.i_0_0| |main@%_4_0_0| |main@%assume.flag.0_0_0| |main@%_7_0_0| |main@%shadow.mem1.1_0_0| |main@%_9_0_0| |main@%shadow.mem.1_0_0| |main@%_6_0_0| |main@%_14_0_0| |main@%_28_0_0| |main@%.0.i2_0_0| |main@%_8_0_0| |main@%_18_0_0| |main@%_5_0_0| |main@%.14.i3_0_0| |main@%.01.i4_0_0| |main@%shadow.mem.0_0_0| |main@%_0_0_0| |@nd_char_0_0| |main@%.03.i6_0_0| |main@%shadow.mem1.0_0_0| |main@%shadow.mem2.0_0_0| |@nd_0_0| |main@%_16_0| |main@%_12_0|) (let ((.def_47 (= .x.15 1))) (let ((.def_51 (= main@%.1.i_0_0 .x.16))) (let ((.def_54 (= main@%assume.flag.0_0_0 .x.17))) (let ((.def_57 (= main@%shadow.mem1.1_0_0 .x.18))) (let ((.def_60 (= main@%shadow.mem.1_0_0 .x.19))) (let ((.def_65 (= .x.16 0))) (let ((.def_73 (= .x.15 4))) (let ((.def_75 (= main@%.03.i6_0_0 main@%.03.i6_2))) (let ((.def_78 (= main@%shadow.mem1.0_0_0 main@%shadow.mem1.0_2))) (let ((.def_81 (= main@%shadow.mem2.0_0_0 main@%shadow.mem2.0_2))) (let ((.def_104 (= main@%_14_0_0 .x.20))) (let ((.def_107 (= main@%_18_0_0 .x.23))) (let ((.def_113 (<= (+ main@%_4_0_0 (* (- 1) main@%.03.i6_0_0)) 1))) (let ((.def_130 (= .x.23 (store main@%shadow.mem2.0_0_0 (+ main@%_8_0_0 main@%.03.i6_0_0) main@%_16_0)))) (let ((.def_132 (<= main@%_8_0_0 0))) (let ((.def_133 (not .def_132))) (let ((.def_137 (or .def_132 (not (<= (+ main@%_8_0_0 main@%.03.i6_0_0) 0))))) (let ((.def_141 (= .x.20 (store main@%shadow.mem1.0_0_0 (+ main@%_7_0_0 main@%.03.i6_0_0) main@%_12_0)))) (let ((.def_143 (<= main@%_7_0_0 0))) (let ((.def_144 (not .def_143))) (let ((.def_148 (or .def_143 (not (<= (+ main@%_7_0_0 main@%.03.i6_0_0) 0))))) (let ((.def_150 (= .x.14 1))) (let ((.def_152 (= main@%_4_0_0 main@%_4_1))) (let ((.def_154 (= main@%_7_0_0 main@%_7_1))) (let ((.def_156 (= main@%_9_0_0 main@%_9_1))) (let ((.def_158 (= main@%_6_0_0 main@%_6_1))) (let ((.def_160 (= main@%_8_0_0 main@%_8_1))) (let ((.def_162 (= main@%_5_0_0 main@%_5_1))) (let ((.def_164 (= main@%_0_0_0 main@%_0_1))) (let ((.def_168 (= main@%.01.i4_0_0 .x.25))) (let ((.def_170 (= main@%.14.i3_0_0 .x.24))) (let ((.def_173 (= main@%shadow.mem.0_0_0 .x.26))) (let ((.def_174 (and (and .def_168 .def_170) .def_173))) (let ((.def_182 (and .def_60 (and .def_57 (and .def_54 (and main@%_5_0_0 .def_51)))))) (let ((.def_205 (= .x.15 2))) (let ((.def_231 (= main@%_6_0_0 .x.17))) (let ((.def_238 (= main@%_28_0_0 .x.21))) (let ((.def_242 (<= (+ main@%_4_0_0 (* (- 1) main@%.14.i3_0_0)) 1))) (let ((.def_251 (select main@%_14_0_0 (+ main@%_7_0_0 main@%.14.i3_0_0)))) (let ((.def_253 (ite (= (select main@%_18_0_0 (+ main@%_8_0_0 main@%.14.i3_0_0)) .def_251) main@%.01.i4_0_0 0))) (let ((.def_258 (and .def_104 (and .def_60 (and .def_57 (and .def_51 .def_54)))))) (let ((.def_279 (= .x.21 (store main@%shadow.mem.0_0_0 (+ main@%_9_0_0 main@%.14.i3_0_0) .def_251)))) (let ((.def_281 (<= main@%_9_0_0 0))) (let ((.def_282 (not .def_281))) (let ((.def_286 (or .def_281 (not (<= (+ main@%_9_0_0 main@%.14.i3_0_0) 0))))) (let ((.def_290 (or .def_132 (not (<= (+ main@%_8_0_0 main@%.14.i3_0_0) 0))))) (let ((.def_294 (or .def_143 (not (<= (+ main@%_7_0_0 main@%.14.i3_0_0) 0))))) (let ((.def_296 (= .x.14 2))) (let ((.def_300 (= main@%.0.i2_0_0 .x.22))) (let ((.def_328 (not (= .def_253 0)))) (let ((.def_332 (= .x.15 3))) (let ((.def_367 (= main@%_14_0_0 .x.18))) (let ((.def_372 (<= (+ main@%_4_0_0 (* (- 1) main@%.0.i2_0_0)) 1))) (let ((.def_401 (= (select main@%_14_0_0 (+ main@%_7_0_0 main@%.0.i2_0_0)) (select main@%_18_0_0 (+ main@%.0.i2_0_0 main@%_8_0_0))))) (let ((.def_405 (or .def_132 (not (<= (+ main@%.0.i2_0_0 main@%_8_0_0) 0))))) (let ((.def_409 (or .def_143 (not (<= (+ main@%_7_0_0 main@%.0.i2_0_0) 0))))) (let ((.def_411 (= .x.14 3))) (let ((.def_473 (= .x.15 5))) (let ((.def_480 (not (<= main@%_4_0_0 main@%.1.i_0_0)))) (let ((.def_510 (= (select main@%shadow.mem.1_0_0 (+ main@%.1.i_0_0 main@%_9_0_0)) (select main@%shadow.mem1.1_0_0 (+ main@%.1.i_0_0 main@%_7_0_0))))) (let ((.def_514 (or .def_281 (not (<= (+ main@%.1.i_0_0 main@%_9_0_0) 0))))) (let ((.def_518 (or .def_143 (not (<= (+ main@%.1.i_0_0 main@%_7_0_0) 0))))) (let ((.def_520 (= .x.14 4))) (and (and (= @nd_char_0_0 .x.27) (= @nd_0_0 .x.28)) (or (or (or (or (or (or (or (and (or (and (or (or (and (or (and (or (and (= main@%.03.i6_2 0) (and (and (and (and (and .def_47 main@%_5_1) .def_51) .def_54) .def_57) .def_60)) (and (and (and (and (and (and (and (= .x.17 main@%_6_1) .def_65) (= .x.19 main@%_0_1)) (not main@%_5_1)) .def_73) .def_75) .def_78) .def_81)) (and (and (and (= .x.14 0) (and (not (<= main@%_9_1 0)) (and (not (<= main@%_8_1 0)) (and (not (<= main@%_7_1 0)) (and (= main@%_5_1 (not (<= main@%_4_1 0))) (= main@%_5_1 main@%_6_1)))))) .def_104) .def_107)) (and (and (and (and (and (and (and (and (and (and (and (and (and (and (and (not .def_113) (and (= main@%shadow.mem2.0_2 .x.23) (and (= (+ main@%.03.i6_0_0 (* (- 1) main@%.03.i6_2)) (- 1)) (and (= main@%shadow.mem1.0_2 .x.20) (and .def_60 (and .def_57 (and .def_54 (and .def_47 .def_51)))))))) .def_130) .def_133) .def_137) .def_141) .def_144) .def_148) .def_150) .def_152) .def_154) .def_156) .def_158) .def_160) .def_162) .def_164)) .def_174) (and (and (= main@%_0_0_0 .x.26) (and (= .x.24 0) (and (= .x.25 1) (and .def_164 (and .def_162 (and .def_160 (and .def_158 (and .def_156 (and .def_154 (and .def_152 (and .def_150 (and .def_148 (and .def_144 (and .def_141 (and .def_137 (and .def_133 (and .def_130 (and .def_113 (and .def_81 (and .def_78 (and .def_75 .def_182))))))))))))))))))))) .def_205)) (and (not main@%_5_0_0) (and (= .x.18 .x.20) (and (= main@%_0_0_0 .x.19) (and (and .def_164 (and .def_162 (and .def_160 (and .def_158 (and .def_156 (and .def_154 (and .def_152 (and .def_150 (and .def_148 (and .def_144 (and .def_141 (and .def_137 (and .def_133 (and .def_130 (and .def_113 (and .def_81 (and .def_78 (and .def_75 (and .def_73 (and .def_65 .def_174)))))))))))))))))))) .def_231))))) .def_238) (and (and (and (and (and (and (and (not .def_242) (and (= .x.26 .x.21) (and (= (+ main@%.14.i3_0_0 (* (- 1) .x.24)) (- 1)) (and (= .x.25 .def_253) (and .def_205 (and .def_164 (and .def_162 (and .def_160 (and .def_158 (and .def_156 (and .def_154 (and .def_152 (and .def_144 (and .def_133 (and .def_81 (and .def_78 (and .def_75 (and .def_107 .def_258)))))))))))))))))) .def_279) .def_282) .def_286) .def_290) .def_294) .def_296)) .def_300) (and (and (= .x.22 0) (and (and .def_296 (and .def_294 (and .def_290 (and .def_286 (and .def_282 (and .def_279 (and .def_242 (and .def_164 (and .def_162 (and .def_160 (and .def_158 (and .def_156 (and .def_154 (and .def_152 (and .def_144 (and .def_133 (and .def_81 (and .def_78 (and .def_75 (and .def_173 (and .def_168 (and .def_170 (and .def_107 (and .def_104 .def_182)))))))))))))))))))))))) .def_328)) .def_332)) (and (and (= .x.19 .x.21) (and (not (and main@%_5_0_0 .def_328)) (and .def_296 (and .def_294 (and .def_290 (and .def_286 (and .def_282 (and .def_279 (and .def_242 (and .def_231 (and .def_164 (and .def_162 (and .def_160 (and .def_158 (and .def_156 (and .def_154 (and .def_152 (and .def_144 (and .def_133 (and .def_81 (and .def_78 (and .def_75 (and .def_73 (and .def_65 (and .def_173 (and .def_168 (and .def_170 (and .def_107 (and .def_104 .def_300))))))))))))))))))))))))))))) .def_367)) (and (and (and (and (and (not .def_372) (and (= (+ main@%.0.i2_0_0 (* (- 1) .x.22)) (- 1)) (and .def_332 (and .def_164 (and .def_162 (and .def_160 (and .def_158 (and .def_156 (and .def_154 (and .def_152 (and .def_144 (and .def_133 (and .def_81 (and .def_78 (and .def_75 (and .def_173 (and .def_168 (and .def_170 (and .def_107 (and .def_238 .def_258)))))))))))))))))))) .def_401) .def_405) .def_409) .def_411)) (and (= main@%_28_0_0 .x.19) (and .def_411 (and .def_409 (and .def_405 (and .def_401 (and .def_372 (and .def_367 (and .def_231 (and .def_164 (and .def_162 (and .def_160 (and .def_158 (and .def_156 (and .def_154 (and .def_152 (and .def_144 (and .def_133 (and .def_81 (and .def_78 (and .def_75 (and .def_73 (and .def_65 (and .def_173 (and .def_168 (and .def_170 (and .def_107 (and .def_300 (and .def_104 .def_238))))))))))))))))))))))))))))) (and (and (not .def_401) (and .def_411 (and .def_409 (and .def_405 (and .def_164 (and .def_162 (and .def_160 (and .def_158 (and .def_156 (and .def_154 (and .def_152 (and .def_144 (and .def_133 (and .def_81 (and .def_78 (and .def_75 (and .def_173 (and .def_168 (and .def_170 (and .def_107 (and .def_300 (and .def_238 (and .def_104 (and .def_60 (and .def_57 (and .def_54 (and main@%_6_0_0 .def_51))))))))))))))))))))))))))) .def_473)) (and (and (and (and (and (= (+ main@%.1.i_0_0 (* (- 1) .x.16)) (- 1)) (and (= .x.17 (and main@%assume.flag.0_0_0 .def_480)) (and .def_282 (and .def_164 (and .def_162 (and .def_160 (and .def_158 (and .def_156 (and .def_154 (and .def_152 (and .def_144 (and .def_81 (and .def_78 (and .def_75 (and .def_73 (and .def_173 (and .def_168 (and .def_170 (and .def_107 (and .def_300 (and .def_238 (and .def_104 (and .def_57 .def_60))))))))))))))))))))))) .def_510) .def_514) .def_518) .def_520)) (and (not .def_510) (and .def_520 (and .def_518 (and .def_514 (and .def_480 (and .def_473 (and .def_282 (and .def_164 (and .def_162 (and .def_160 (and .def_158 (and .def_156 (and .def_154 (and .def_152 (and .def_144 (and .def_81 (and .def_78 (and .def_75 (and .def_173 (and .def_168 (and .def_170 (and .def_107 (and .def_300 (and .def_238 (and .def_104 (and .def_60 (and .def_57 (and .def_54 (and main@%assume.flag.0_0_0 .def_51))))))))))))))))))))))))))))))))))))))))))))))))))))))))))))))))))))))))))))))))))))))))))))))) (state |.x.15| |.x.16| |main@%_4_1| |.x.17| |main@%_7_1| |.x.18| |main@%_9_1| |.x.19| |main@%_6_1| |.x.20| |.x.21| |.x.22| |main@%_8_1| |.x.23| |main@%_5_1| |.x.24| |.x.25| |.x.26| |main@%_0_1| |.x.27| |main@%.03.i6_2| |main@%shadow.mem1.0_2| |main@%shadow.mem2.0_2| |.x.28| |.xtv.1| |.xtv.2|))))
(assert (forall ((|.x.14| Int) (|main@%.1.i_0_0| Int) (|main@%_4_0_0| Int) (|main@%assume.flag.0_0_0| Bool) (|main@%_7_0_0| Int) (|main@%shadow.mem1.1_0_0| (Array Int Int)) (|main@%_9_0_0| Int) (|main@%shadow.mem.1_0_0| (Array Int Int)) (|main@%_6_0_0| Bool) (|main@%_14_0_0| (Array Int Int)) (|main@%_28_0_0| (Array Int Int)) (|main@%.0.i2_0_0| Int) (|main@%_8_0_0| Int) (|main@%_18_0_0| (Array Int Int)) (|main@%_5_0_0| Bool) (|main@%.14.i3_0_0| Int) (|main@%.01.i4_0_0| Int) (|main@%shadow.mem.0_0_0| (Array Int Int)) (|main@%_0_0_0| (Array Int Int)) (|@nd_char_0_0| Int) (|main@%.03.i6_0_0| Int) (|main@%shadow.mem1.0_0_0| (Array Int Int)) (|main@%shadow.mem2.0_0_0| (Array Int Int)) (|@nd_0_0| Int) (|main@%_16_0| Int) (|main@%_12_0| Int) (|.x.27| Int) (|.x.28| Int) (|main@%.03.i6_2| Int) (|.x.15| Int) (|main@%_5_1| Bool) (|.x.16| Int) (|.x.17| Bool) (|.x.18| (Array Int Int)) (|.x.19| (Array Int Int)) (|main@%_6_1| Bool) (|main@%_0_1| (Array Int Int)) (|main@%shadow.mem1.0_2| (Array Int Int)) (|main@%shadow.mem2.0_2| (Array Int Int)) (|main@%_9_1| Int) (|main@%_8_1| Int) (|main@%_7_1| Int) (|main@%_4_1| Int) (|.x.20| (Array Int Int)) (|.x.23| (Array Int Int)) (|.x.25| Int) (|.x.24| Int) (|.x.26| (Array Int Int)) (|.x.21| (Array Int Int)) (|.x.22| Int) (|.xtv.1| Int) (|.xtv.2| Int)) (=> (state |.x.14| |main@%.1.i_0_0| |main@%_4_0_0| |main@%assume.flag.0_0_0| |main@%_7_0_0| |main@%shadow.mem1.1_0_0| |main@%_9_0_0| |main@%shadow.mem.1_0_0| |main@%_6_0_0| |main@%_14_0_0| |main@%_28_0_0| |main@%.0.i2_0_0| |main@%_8_0_0| |main@%_18_0_0| |main@%_5_0_0| |main@%.14.i3_0_0| |main@%.01.i4_0_0| |main@%shadow.mem.0_0_0| |main@%_0_0_0| |@nd_char_0_0| |main@%.03.i6_0_0| |main@%shadow.mem1.0_0_0| |main@%shadow.mem2.0_0_0| |@nd_0_0| |main@%_16_0| |main@%_12_0|) (not (= .x.14 5)))))
(check-sat)
